1 1 -2 0
1 3 4 0
1 -3 -2 0
1 3 5 0
1 -3 -6 0
1 7 -8 0
1 7 5 0
1 -7 -9 0
1 -10 2 0
1 10 -9 0
1 -5 11 0
1 -5 -1 0
1 -9 12 0
1 -9 7 0
1 2 10 0
1 2 -3 0
1 2 -13 0
1 2 14 0
1 2 1 0
1 2 6 0
1 -6 -10 0
1 -6 -2 0
1 6 15 0
1 -16 -8 0
1 -16 14 0
1 -11 8 0
1 11 17 0
1 -11 -16 0
1 -11 9 0
1 -18 -8 0
1 18 19 0
1 18 -5 0
1 -18 -20 0
1 18 9 0
1 19 -8 0
1 -19 -21 0
1 19 -22 0
1 -19 -9 0
1 -23 -24 0
1 23 -19 0
1 -23 11 0
1 -23 -25 0
1 -23 -26 0
1 -23 18 0
1 -23 -7 0
1 -27 -28 0
1 -27 29 0
1 27 -23 0
1 -27 7 0
1 17 30 0
1 17 19 0
1 -17 10 0
1 -17 -31 0
1 -17 -16 0
1 -17 -7 0
1 17 32 0
1 -8 -33 0
1 -8 -11 0
1 -8 28 0
1 -8 -17 0
1 8 -34 0
1 -8 15 0
1 -8 -32 0
1 25 -35 0
1 -25 -27 0
1 -25 36 0
1 25 20 0
1 -35 30 0
1 -35 37 0
1 -35 -22 0
1 29 -37 0
1 -29 -22 0
1 29 34 0
1 -29 36 0
1 29 20 0
1 -24 23 0
1 -20 -24 0
1 -20 -35 0
1 20 -19 0
1 -20 22 0
1 20 38 0
1 -20 -39 0
1 20 40 0
1 -22 -35 0
1 22 -38 0
1 -22 -29 0
1 -22 20 0
1 -22 -40 0
1 -36 -41 0
1 36 28 0
1 36 -25 0
1 -36 -42 0
1 36 -40 0
1 37 24 0
1 37 -35 0
1 37 43 0
1 37 -28 0
1 37 29 0
1 -37 18 0
1 -37 -36 0
1 -37 -40 0
1 37 32 0
1 -44 45 0
1 44 -1 0
1 4 46 0
1 -4 47 0
1 -4 -3 0
1 -4 -48 0
1 4 44 0
1 49 -47 0
1 -49 50 0
1 -49 -51 0
1 49 48 0
1 -49 -52 0
1 -49 -53 0
1 54 -50 0
1 -54 -48 0
1 -54 52 0
1 54 49 0
1 -47 -21 0
1 47 55 0
1 47 4 0
1 -47 49 0
1 -45 47 0
1 45 55 0
1 45 -56 0
1 -45 -14 0
1 45 -49 0
1 -45 44 0
1 46 -57 0
1 48 -46 0
1 48 58 0
1 48 56 0
1 48 -59 0
1 -48 44 0
1 -14 51 0
1 14 -52 0
1 -14 60 0
1 55 -58 0
1 55 -2 0
1 55 61 0
1 -55 -6 0
1 -62 -51 0
1 62 -63 0
1 -62 -2 0
1 -62 -52 0
1 -21 57 0
1 21 51 0
1 21 6 0
1 51 64 0
1 -51 52 0
1 -51 65 0
1 51 -34 0
1 -51 15 0
1 51 -49 0
1 -52 64 0
1 -52 65 0
1 52 21 0
1 -52 51 0
1 -52 -54 0
1 52 -34 0
1 52 -15 0
1 -52 49 0
1 50 66 0
1 50 21 0
1 50 67 0
1 50 61 0
1 50 -62 0
1 50 -14 0
1 61 -21 0
1 -61 50 0
1 61 55 0
1 61 -54 0
1 -61 -56 0
1 15 -8 0
1 15 -30 0
1 -15 -25 0
1 -15 68 0
1 -30 -63 0
1 30 -5 0
1 -30 -17 0
1 30 -15 0
1 30 69 0
1 -30 6 0
1 30 -9 0
1 34 12 0
1 34 65 0
1 -34 -70 0
1 -34 -29 0
1 -34 -67 0
1 -34 69 0
1 65 -51 0
1 65 13 0
1 65 -34 0
1 -63 65 0
1 63 28 0
1 -63 -62 0
1 63 71 0
1 69 21 0
1 -69 34 0
1 69 71 0
1 -70 64 0
1 70 30 0
1 -70 -21 0
1 -70 72 0
1 -70 -73 0
1 -70 74 0
1 -70 15 0
1 -70 -71 0
1 -70 -75 0
1 -68 65 0
1 68 -30 0
1 68 -70 0
1 -68 -76 0
1 -68 -75 0
1 28 -8 0
1 -28 -37 0
1 -28 -13 0
1 28 77 0
1 -28 23 0
1 28 -69 0
1 -32 8 0
1 32 27 0
1 32 -63 0
1 32 -28 0
1 32 -36 0
1 -41 12 0
1 -41 -78 0
1 -41 63 0
1 41 -13 0
1 41 -31 0
1 41 -26 0
1 41 69 0
1 41 -79 0
1 80 12 0
1 -80 -78 0
1 80 -63 0
1 80 -13 0
1 -80 -77 0
1 80 75 0
1 77 -12 0
1 -77 65 0
1 77 41 0
1 77 5 0
1 -77 -34 0
1 77 -81 0
1 -77 -82 0
1 -77 -40 0
1 77 80 0
1 -12 -65 0
1 12 -83 0
1 -12 -28 0
1 12 -77 0
1 -12 9 0
1 12 81 0
1 -12 -82 0
1 12 -40 0
1 12 80 0
1 -13 73 0
1 13 -28 0
1 13 84 0
1 13 80 0
1 13 -79 0
1 79 -85 0
1 79 -41 0
1 79 13 0
1 -79 34 0
1 -79 81 0
1 -79 84 0
1 -79 80 0
1 -38 33 0
1 -38 37 0
1 38 -22 0
1 -38 -73 0
1 38 36 0
1 -38 40 0
1 -40 12 0
1 40 37 0
1 40 36 0
1 83 82 0
1 83 86 0
1 -83 -26 0
1 -83 42 0
1 -83 39 0
1 82 -78 0
1 82 -77 0
1 82 31 0
1 82 39 0
1 82 84 0
1 -26 -87 0
1 26 78 0
1 26 -88 0
1 26 89 0
1 26 -38 0
1 -26 -90 0
1 26 -23 0
1 -26 91 0
1 26 82 0
1 -26 40 0
1 -78 -92 0
1 78 -89 0
1 -78 41 0
1 78 93 0
1 -78 -26 0
1 31 -33 0
1 31 87 0
1 -31 83 0
1 -31 -17 0
1 -31 90 0
1 31 94 0
1 31 81 0
1 -33 8 0
1 33 95 0
1 33 -85 0
1 33 -83 0
1 -33 38 0
1 33 -31 0
1 -89 -96 0
1 89 85 0
1 -89 42 0
1 -97 78 0
1 -97 43 0
1 -97 81 0
1 -88 -78 0
1 88 96 0
1 -88 -39 0
1 -93 96 0
1 93 42 0
1 -93 -39 0
1 -39 -88 0
1 39 -83 0
1 -39 98 0
1 -39 -93 0
1 39 97 0
1 39 20 0
1 -39 -82 0
1 96 88 0
1 96 22 0
1 -96 -89 0
1 -96 -99 0
1 96 -98 0
1 42 100 0
1 42 -87 0
1 42 -43 0
1 42 -82 0
1 -43 100 0
1 43 -101 0
1 -43 -87 0
1 -43 89 0
1 -43 98 0
1 43 -102 0
1 43 -42 0
1 43 -82 0
1 103 -104 0
1 -103 105 0
1 -53 104 0
1 53 106 0
1 -53 107 0
1 53 49 0
1 106 -104 0
1 106 -108 0
1 -106 54 0
1 -106 105 0
1 -106 -109 0
1 110 -111 0
1 110 112 0
1 -110 53 0
1 108 110 0
1 108 111 0
1 108 53 0
1 105 53 0
1 -104 -113 0
1 -104 111 0
1 -60 -108 0
1 60 -114 0
1 60 110 0
1 -60 14 0
1 -60 -109 0
1 58 -46 0
1 -58 -55 0
1 -58 -115 0
1 58 -110 0
1 58 109 0
1 -59 116 0
1 59 -46 0
1 59 57 0
1 -59 117 0
1 59 -118 0
1 59 109 0
1 -59 -119 0
1 57 116 0
1 57 110 0
1 57 108 0
1 -57 118 0
1 -57 -109 0
1 -109 -66 0
1 -109 57 0
1 107 120 0
1 -107 121 0
1 107 57 0
1 -107 67 0
1 107 -109 0
1 -107 53 0
1 -115 57 0
1 115 122 0
1 114 120 0
1 -114 -123 0
1 114 115 0
1 -114 60 0
1 56 107 0
1 56 -61 0
1 56 109 0
1 56 -119 0
1 -121 -116 0
1 -121 50 0
1 121 -117 0
1 -121 118 0
1 67 50 0
1 -67 107 0
1 67 117 0
1 -67 118 0
1 67 -124 0
1 -67 61 0
1 -67 -119 0
1 66 116 0
1 66 -125 0
1 66 -126 0
1 66 -50 0
1 66 127 0
1 -66 67 0
1 66 124 0
1 -66 -109 0
1 -66 -119 0
1 -116 -64 0
1 -116 66 0
1 116 128 0
1 116 -74 0
1 116 129 0
1 -118 -66 0
1 -118 -57 0
1 118 -128 0
1 -118 74 0
1 -118 130 0
1 -118 -75 0
1 -119 66 0
1 119 -131 0
1 119 117 0
1 119 -128 0
1 -119 -132 0
1 119 -122 0
1 -119 -67 0
1 119 -59 0
1 -119 -133 0
1 -117 128 0
1 117 67 0
1 117 133 0
1 -117 -134 0
1 129 116 0
1 -129 -51 0
1 129 -70 0
1 129 118 0
1 -129 -28 0
1 129 127 0
1 129 124 0
1 129 68 0
1 64 -116 0
1 64 -70 0
1 -64 -127 0
1 64 -52 0
1 64 -68 0
1 74 -116 0
1 -74 70 0
1 -74 41 0
1 -74 135 0
1 -75 136 0
1 75 74 0
1 -75 135 0
1 -75 134 0
1 126 -66 0
1 -126 -47 0
1 126 -137 0
1 126 73 0
1 126 74 0
1 126 -129 0
1 -126 -124 0
1 126 138 0
1 -126 75 0
1 -124 129 0
1 124 -45 0
1 -124 -138 0
1 -124 84 0
1 124 -71 0
1 -124 75 0
1 -125 -46 0
1 125 -139 0
1 125 -140 0
1 -125 -133 0
1 -127 -140 0
1 -127 141 0
1 -127 -74 0
1 127 -129 0
1 -127 -142 0
1 -73 143 0
1 73 -70 0
1 73 -38 0
1 -73 63 0
1 -73 128 0
1 -73 -135 0
1 73 -68 0
1 -73 -69 0
1 -71 126 0
1 71 -63 0
1 -71 124 0
1 -71 144 0
1 71 -133 0
1 86 126 0
1 -86 -141 0
1 -86 -124 0
1 -86 144 0
1 -86 -135 0
1 84 136 0
1 -84 -145 0
1 -84 124 0
1 84 144 0
1 -84 -146 0
1 136 135 0
1 -136 -85 0
1 136 147 0
1 136 -94 0
1 -136 -81 0
1 136 84 0
1 -136 71 0
1 -135 -85 0
1 -135 73 0
1 -135 -74 0
1 -135 -147 0
1 -135 81 0
1 135 -84 0
1 -143 -50 0
1 143 -148 0
1 143 -149 0
1 -143 -74 0
1 -143 -138 0
1 -143 75 0
1 144 -143 0
1 -144 -148 0
1 -144 -86 0
1 -144 -74 0
1 144 -138 0
1 -144 71 0
1 144 -75 0
1 -85 12 0
1 85 -33 0
1 85 135 0
1 -85 89 0
1 -85 -136 0
1 85 140 0
1 85 145 0
1 85 76 0
1 -85 -79 0
1 -81 -33 0
1 -81 72 0
1 -81 77 0
1 -81 135 0
1 -81 138 0
1 -81 -79 0
1 -150 -151 0
1 -150 -152 0
1 -150 94 0
1 150 135 0
1 150 76 0
1 150 -146 0
1 94 -33 0
1 -94 -72 0
1 94 145 0
1 94 -151 0
1 94 152 0
1 -94 -31 0
1 -94 93 0
1 -94 -153 0
1 94 146 0
1 -94 -154 0
1 145 -87 0
1 145 150 0
1 -145 -85 0
1 -145 86 0
1 -145 -63 0
1 145 -155 0
1 145 90 0
1 145 84 0
1 -146 101 0
1 -146 -87 0
1 146 -69 0
1 72 150 0
1 72 -76 0
1 72 -85 0
1 72 -70 0
1 72 -155 0
1 72 -156 0
1 72 81 0
1 76 157 0
1 76 158 0
1 -76 -85 0
1 -76 -86 0
1 -76 155 0
1 76 156 0
1 87 -43 0
1 87 -151 0
1 87 152 0
1 -87 42 0
1 -90 159 0
1 90 -33 0
1 -90 -78 0
1 90 -43 0
1 -90 -31 0
1 90 147 0
1 90 42 0
1 90 -154 0
1 101 159 0
1 101 -157 0
1 -101 -95 0
1 101 151 0
1 -101 102 0
1 -101 91 0
1 -101 -42 0
1 -101 -154 0
1 102 -159 0
1 102 -101 0
1 102 92 0
1 -102 43 0
1 -102 151 0
1 -102 156 0
1 102 -146 0
1 152 -100 0
1 152 -159 0
1 152 -101 0
1 152 87 0
1 152 -150 0
1 152 -160 0
1 152 161 0
1 159 101 0
1 -159 -162 0
1 -159 -98 0
1 159 -152 0
1 -159 -90 0
1 159 161 0
1 151 -150 0
1 151 -163 0
1 151 -13 0
1 151 155 0
1 -151 -94 0
1 -151 154 0
1 151 164 0
1 154 165 0
1 -154 -150 0
1 -154 162 0
1 154 -90 0
1 -154 -94 0
1 -154 161 0
1 154 -79 0
1 100 165 0
1 -100 -96 0
1 -100 -98 0
1 -100 -42 0
1 -100 39 0
1 -98 100 0
1 -98 -95 0
1 98 155 0
1 -98 152 0
1 -166 159 0
1 -166 -167 0
1 166 -160 0
1 166 -168 0
1 166 164 0
1 160 -95 0
1 160 92 0
1 160 -163 0
1 160 -169 0
1 -91 -98 0
1 -91 -26 0
1 91 170 0
1 -91 166 0
1 -92 100 0
1 -92 171 0
1 92 160 0
1 -92 -98 0
1 -92 -102 0
1 92 -91 0
1 -92 -170 0
1 -169 -100 0
1 169 -101 0
1 169 172 0
1 -169 -162 0
1 169 160 0
1 -169 -102 0
1 -169 173 0
1 169 166 0
1 -95 -100 0
1 95 160 0
1 95 -173 0
1 95 161 0
1 -95 -166 0
1 170 92 0
1 170 -99 0
1 -174 167 0
1 174 168 0
1 174 -170 0
1 -175 167 0
1 175 -99 0
1 -175 -91 0
1 175 -176 0
1 171 -92 0
1 171 168 0
1 -171 175 0
1 -176 171 0
1 176 174 0
1 176 -160 0
1 -176 39 0
1 -176 -166 0
1 -99 -174 0
1 -99 -175 0
1 99 166 0
1 168 160 0
1 -168 -175 0
1 -168 170 0
1 167 -171 0
1 167 160 0
1 122 117 0
1 -122 -177 0
1 -122 -112 0
1 122 119 0
1 -120 64 0
1 -120 177 0
1 132 -123 0
1 -132 112 0
1 -132 -178 0
1 -134 179 0
1 -134 180 0
1 -134 177 0
1 -134 112 0
1 134 181 0
1 -134 178 0
1 -134 119 0
1 -134 75 0
1 -112 -179 0
1 -112 141 0
1 -112 128 0
1 -112 -182 0
1 112 134 0
1 -179 120 0
1 179 -108 0
1 179 -132 0
1 -179 112 0
1 -179 183 0
1 179 -133 0
1 -177 -132 0
1 177 -122 0
1 177 134 0
1 113 -184 0
1 128 -123 0
1 128 180 0
1 -128 -73 0
1 128 118 0
1 -128 -127 0
1 128 133 0
1 -128 -119 0
1 133 116 0
1 133 -127 0
1 133 -181 0
1 141 123 0
1 141 185 0
1 -141 127 0
1 -141 -112 0
1 -141 -178 0
1 -141 -131 0
1 183 127 0
1 183 -112 0
1 -183 -181 0
1 -178 -141 0
1 178 128 0
1 -178 -132 0
1 -178 -138 0
1 -178 134 0
1 180 140 0
1 -180 186 0
1 180 138 0
1 -181 141 0
1 -181 132 0
1 181 183 0
1 181 -187 0
1 -181 -134 0
1 123 -188 0
1 123 141 0
1 123 -132 0
1 123 -134 0
1 140 -131 0
1 -138 189 0
1 138 125 0
1 -138 -140 0
1 -138 -131 0
1 -148 189 0
1 -148 139 0
1 -148 137 0
1 -148 -143 0
1 -148 -185 0
1 148 190 0
1 153 189 0
1 153 148 0
1 153 -180 0
1 -153 -185 0
1 153 -142 0
1 -153 144 0
1 -153 -94 0
1 189 116 0
1 -189 191 0
1 189 -192 0
1 189 -141 0
1 -189 130 0
1 189 -153 0
1 -189 138 0
1 189 183 0
1 130 -189 0
1 130 157 0
1 -130 -118 0
1 130 -156 0
1 -130 193 0
1 -131 -194 0
1 131 191 0
1 131 -148 0
1 -131 -141 0
1 131 185 0
1 131 138 0
1 -185 -191 0
1 -185 188 0
1 -185 148 0
1 185 141 0
1 185 195 0
1 185 -186 0
1 -185 -153 0
1 -158 87 0
1 158 143 0
1 158 -142 0
1 -158 -147 0
1 158 190 0
1 -158 144 0
1 -147 189 0
1 147 158 0
1 -147 -144 0
1 147 -190 0
1 147 -76 0
1 157 139 0
1 -157 -149 0
1 157 -196 0
1 157 -197 0
1 -157 76 0
1 -156 189 0
1 -156 -137 0
1 -156 -149 0
1 -156 -102 0
1 156 198 0
1 -156 142 0
1 -156 197 0
1 156 76 0
1 137 148 0
1 137 199 0
1 137 163 0
1 137 190 0
1 137 164 0
1 -190 -157 0
1 -190 -148 0
1 -190 -199 0
1 190 156 0
1 190 -153 0
1 -139 200 0
1 139 191 0
1 -139 148 0
1 139 -199 0
1 139 -147 0
1 -139 153 0
1 142 157 0
1 142 -139 0
1 142 -148 0
1 142 -199 0
1 142 -195 0
1 142 -147 0
1 -142 153 0
1 -165 137 0
1 -165 -145 0
1 165 155 0
1 165 -197 0
1 -165 -76 0
1 155 -196 0
1 155 -195 0
1 -155 -201 0
1 155 -197 0
1 -155 -146 0
1 -155 -154 0
1 -164 137 0
1 164 -149 0
1 -164 196 0
1 164 -163 0
1 164 202 0
1 164 -151 0
1 164 -201 0
1 164 197 0
1 163 137 0
1 -163 197 0
1 163 203 0
1 196 -162 0
1 -196 164 0
1 -197 156 0
1 197 161 0
1 -197 164 0
1 149 204 0
1 149 199 0
1 -149 -201 0
1 201 -165 0
1 -201 -157 0
1 -201 -149 0
1 -201 164 0
1 161 159 0
1 161 95 0
1 161 -202 0
1 -161 152 0
1 161 -170 0
1 161 -203 0
1 -162 -196 0
1 -162 174 0
1 162 -205 0
1 -162 -151 0
1 162 169 0
1 162 154 0
1 173 172 0
1 -173 202 0
1 -173 169 0
1 -173 -175 0
1 172 -205 0
1 -172 169 0
1 -172 197 0
1 -202 161 0
1 203 -202 0
1 -203 -173 0
1 -203 -164 0
1 205 172 0
1 205 163 0
1 205 173 0
1 206 -172 0
1 206 162 0
1 206 163 0
1 -188 -184 0
1 -188 -180 0
1 -188 -178 0
1 186 -207 0
1 186 147 0
1 208 -184 0
1 208 -209 0
1 -208 -185 0
1 208 210 0
1 -208 -182 0
1 -198 -207 0
1 198 -185 0
1 198 131 0
1 182 -191 0
1 -182 -211 0
1 182 -186 0
1 -182 112 0
1 207 -200 0
1 207 -208 0
1 -207 -198 0
1 -207 -186 0
1 -207 182 0
1 -210 198 0
1 -184 -113 0
1 -184 198 0
1 -191 165 0
1 -191 -130 0
1 -191 212 0
1 195 -191 0
1 -195 139 0
1 -195 -155 0
1 -195 -142 0
1 195 -187 0
1 195 -212 0
1 -200 -192 0
1 200 209 0
1 -200 -213 0
1 211 200 0
1 211 139 0
1 211 209 0
1 -211 -213 0
1 211 193 0
1 -211 142 0
1 -211 212 0
1 212 -214 0
1 -212 -195 0
1 -214 191 0
1 -214 -180 0
1 214 -211 0
1 214 215 0
1 -187 208 0
1 187 -211 0
1 187 -195 0
1 187 198 0
1 187 -181 0
1 -209 -191 0
1 -209 -208 0
1 209 123 0
1 -209 -211 0
1 -209 195 0
1 -199 192 0
1 -199 -139 0
1 -199 -162 0
1 -199 -213 0
1 -199 -193 0
1 -199 142 0
1 -199 -201 0
1 199 212 0
1 -215 -194 0
1 -215 214 0
1 -215 -193 0
1 -215 -201 0
1 215 -173 0
1 -204 149 0
1 -204 214 0
1 -204 -213 0
1 204 201 0
1 -192 200 0
1 192 189 0
1 -192 204 0
1 -192 -199 0
1 192 -211 0
1 193 -200 0
1 193 -192 0
1 193 130 0
1 194 -204 0
1 -194 -213 0
1 -194 131 0
1 -213 194 0
1 213 211 0
